(define-fun assumption.0 ((reg_0_w_stage (_ BitVec 2)) (ex_wb_reg_wen (_ BitVec 1)) (ex_wb_rd (_ BitVec 2)) (id_ex_rd (_ BitVec 2)) (id_ex_reg_wen (_ BitVec 1))) Bool (and (and true (or (= ((_ extract 1 1) reg_0_w_stage) id_ex_reg_wen) (not (= (concat (_ bv0 1) ((_ extract 1 1) reg_0_w_stage)) id_ex_rd)))) (not (and (and (= ex_wb_rd (_ bv0 2)) (= ex_wb_reg_wen (_ bv1 1))) (= reg_0_w_stage (_ bv0 2))))))
(define-fun assumption.1 ((reg_1_w_stage (_ BitVec 2)) (ex_wb_rd (_ BitVec 2)) (ex_wb_reg_wen (_ BitVec 1)) (id_ex_rd (_ BitVec 2)) (id_ex_reg_wen (_ BitVec 1))) Bool (and (and true (or (= id_ex_reg_wen ((_ extract 1 1) reg_1_w_stage)) (not (= ((_ zero_extend 1) (_ bv1 1)) id_ex_rd)))) (not (and (and (= ex_wb_rd (_ bv1 2)) (= ex_wb_reg_wen (_ bv1 1))) (= reg_1_w_stage (_ bv0 2))))))
(define-fun assumption.2 ((reg_1_w_stage (_ BitVec 2)) (ex_wb_reg_wen (_ BitVec 1)) (id_ex_reg_wen (_ BitVec 1))) Bool (and (and true (or (not (= (_ bv0 1) id_ex_reg_wen)) (= (_ bv0 1) ((_ extract 1 1) reg_1_w_stage)))) (not (and (= ex_wb_reg_wen (_ bv0 1)) (= reg_1_w_stage (_ bv1 2))))))
(define-fun assumption.3 ((reg_1_w_stage (_ BitVec 2)) (ex_wb_reg_wen (_ BitVec 1)) (ex_wb_rd (_ BitVec 2)) (id_ex_rd (_ BitVec 2))) Bool (and (and true (or (= (_ bv0 1) ((_ extract 1 1) reg_1_w_stage)) (not (= (bvor ((_ zero_extend 1) ((_ extract 1 1) reg_1_w_stage)) (_ bv2 2)) id_ex_rd)))) (not (and (and (= ex_wb_rd (_ bv3 2)) (= ex_wb_reg_wen (_ bv1 1))) (= reg_1_w_stage (_ bv1 2))))))
(define-fun assumption.4 ((reg_1_w_stage (_ BitVec 2)) (ex_wb_reg_wen (_ BitVec 1)) (ex_wb_rd (_ BitVec 2)) (id_ex_rd (_ BitVec 2))) Bool (and (and (and true (or (= (_ bv0 1) ((_ extract 1 1) reg_1_w_stage)) (not (= reg_1_w_stage id_ex_rd)))) (or (= (_ bv0 1) ((_ extract 1 1) reg_1_w_stage)) (not (= (_ bv2 2) id_ex_rd)))) (not (and (and (= ex_wb_rd (_ bv2 2)) (= ex_wb_reg_wen (_ bv1 1))) (= reg_1_w_stage (_ bv1 2))))))
(define-fun assumption.5 ((reg_2_w_stage (_ BitVec 2)) (ex_wb_reg_wen (_ BitVec 1)) (ex_wb_rd (_ BitVec 2)) (id_ex_rd (_ BitVec 2)) (id_ex_reg_wen (_ BitVec 1))) Bool (and (and true (or (or (not (= (_ bv1 1) id_ex_reg_wen)) (not (= ((_ extract 1 1) reg_2_w_stage) id_ex_reg_wen))) (not (= (concat (_ bv0 1) ((_ extract 1 1) reg_2_w_stage)) id_ex_rd)))) (not (and (and (= ex_wb_rd (_ bv1 2)) (= ex_wb_reg_wen (_ bv1 1))) (= reg_2_w_stage (_ bv1 2))))))
(define-fun assumption.6 ((reg_2_w_stage (_ BitVec 2)) (ex_wb_reg_wen (_ BitVec 1)) (id_ex_reg_wen (_ BitVec 1)) (ex_wb_rd (_ BitVec 2)) (id_ex_rd (_ BitVec 2))) Bool (and (and true (or (= ((_ extract 1 1) reg_2_w_stage) id_ex_reg_wen) (not (= id_ex_rd (bvor ((_ zero_extend 1) ((_ extract 1 1) reg_2_w_stage)) (_ bv2 2)))))) (not (and (and (= ex_wb_rd (_ bv2 2)) (= ex_wb_reg_wen (_ bv1 1))) (= reg_2_w_stage (_ bv0 2))))))
(define-fun assumption.7 ((reg_2_w_stage (_ BitVec 2)) (ex_wb_reg_wen (_ BitVec 1)) (id_ex_reg_wen (_ BitVec 1))) Bool (and (and true (or (not (= (_ bv0 1) id_ex_reg_wen)) (= (_ bv0 1) ((_ extract 1 1) reg_2_w_stage)))) (not (and (= ex_wb_reg_wen (_ bv0 1)) (= reg_2_w_stage (_ bv1 2))))))
(define-fun assumption.8 ((reg_2_w_stage (_ BitVec 2)) (ex_wb_reg_wen (_ BitVec 1)) (ex_wb_rd (_ BitVec 2)) (id_ex_rd (_ BitVec 2)) (id_ex_reg_wen (_ BitVec 1))) Bool (and (and true (or (not (= (_ bv1 1) id_ex_reg_wen)) (not (= id_ex_rd (bvor ((_ zero_extend 1) ((_ extract 1 1) reg_2_w_stage)) (_ bv2 2)))))) (not (and (and (= ex_wb_rd (_ bv3 2)) (= ex_wb_reg_wen (_ bv1 1))) (= reg_2_w_stage (_ bv1 2))))))
(define-fun assumption.9 ((reg_0_w_stage (_ BitVec 2)) (ex_wb_reg_wen (_ BitVec 1)) (ex_wb_rd (_ BitVec 2)) (id_ex_rd (_ BitVec 2))) Bool (and (and true (or (= (_ bv0 1) ((_ extract 1 1) reg_0_w_stage)) (not (= (_ bv2 2) id_ex_rd)))) (not (and (and (= ex_wb_rd (_ bv2 2)) (= ex_wb_reg_wen (_ bv1 1))) (= reg_0_w_stage (_ bv1 2))))))
(define-fun assumption.10 ((reg_0_w_stage (_ BitVec 2)) (ex_wb_reg_wen (_ BitVec 1)) (ex_wb_rd (_ BitVec 2)) (id_ex_rd (_ BitVec 2)) (id_ex_reg_wen (_ BitVec 1))) Bool (and (and true (or (or (= (_ bv0 1) id_ex_reg_wen) (not (= ((_ extract 1 1) reg_0_w_stage) id_ex_reg_wen))) (not (= (bvor ((_ zero_extend 1) ((_ extract 1 1) reg_0_w_stage)) (_ bv2 2)) id_ex_rd)))) (not (and (and (= ex_wb_rd (_ bv3 2)) (= ex_wb_reg_wen (_ bv1 1))) (= reg_0_w_stage (_ bv1 2))))))
(define-fun assumption.11 ((reg_2_w_stage (_ BitVec 2)) (ex_wb_rd (_ BitVec 2)) (ex_wb_reg_wen (_ BitVec 1)) (id_ex_rd (_ BitVec 2)) (id_ex_reg_wen (_ BitVec 1))) Bool (and (and true (or (or (= (_ bv0 1) id_ex_reg_wen) (not (= id_ex_reg_wen ((_ extract 1 1) reg_2_w_stage)))) (not (= (_ bv0 2) id_ex_rd)))) (not (and (and (= ex_wb_rd (_ bv0 2)) (= ex_wb_reg_wen (_ bv1 1))) (= reg_2_w_stage (_ bv1 2))))))
(define-fun assumption.12 ((reg_0_w_stage (_ BitVec 2)) (ex_wb_reg_wen (_ BitVec 1)) (id_ex_reg_wen (_ BitVec 1))) Bool (and (and (and true (or (= (= reg_0_w_stage (_ bv0 2)) (= id_ex_reg_wen (_ bv0 1))) (not (= (_ bv2 2) reg_0_w_stage)))) (or (= (_ bv0 1) ((_ extract 1 1) reg_0_w_stage)) (= (= reg_0_w_stage (_ bv0 2)) (= id_ex_reg_wen (_ bv0 1))))) (not (and (= ex_wb_reg_wen (_ bv0 1)) (= reg_0_w_stage (_ bv1 2))))))
(define-fun assumption.13 ((reg_0_w_stage (_ BitVec 2)) (ex_wb_rd (_ BitVec 2)) (ex_wb_reg_wen (_ BitVec 1)) (id_ex_rd (_ BitVec 2))) Bool (and (and true (or (= (_ bv0 1) ((_ extract 1 1) reg_0_w_stage)) (not (= ((_ zero_extend 1) (_ bv1 1)) id_ex_rd)))) (not (and (and (= ex_wb_rd (_ bv1 2)) (= ex_wb_reg_wen (_ bv1 1))) (= reg_0_w_stage (_ bv1 2))))))
(define-fun assumption.14 ((reg_1_w_stage (_ BitVec 2)) (ex_wb_reg_wen (_ BitVec 1)) (ex_wb_rd (_ BitVec 2)) (id_ex_rd (_ BitVec 2))) Bool (and (and (and true (or (not (= (_ bv2 2) reg_1_w_stage)) (not (= (_ bv0 2) id_ex_rd)))) (or (not (= (_ bv0 2) id_ex_rd)) (not (= reg_1_w_stage (bvor ((_ zero_extend 1) ((_ extract 1 1) reg_1_w_stage)) (_ bv2 2)))))) (not (and (and (= ex_wb_rd (_ bv0 2)) (= ex_wb_reg_wen (_ bv1 1))) (= reg_1_w_stage (_ bv1 2))))))
(define-fun assumption.15 ((reg_3_w_stage (_ BitVec 2)) (ex_wb_rd (_ BitVec 2)) (ex_wb_reg_wen (_ BitVec 1)) (id_ex_rd (_ BitVec 2))) Bool (and (and true (or (not (= (_ bv1 1) ((_ extract 1 1) reg_3_w_stage))) (not (= (concat (_ bv0 1) ((_ extract 1 1) reg_3_w_stage)) id_ex_rd)))) (not (and (and (= ex_wb_rd (_ bv1 2)) (= ex_wb_reg_wen (_ bv1 1))) (= reg_3_w_stage (_ bv1 2))))))
(define-fun assumption.16 ((reg_3_w_stage (_ BitVec 2)) (ex_wb_reg_wen (_ BitVec 1)) (id_ex_rd (_ BitVec 2)) (ex_wb_rd (_ BitVec 2)) (id_ex_reg_wen (_ BitVec 1))) Bool (and (and (and true (or (or (= (_ bv0 1) id_ex_reg_wen) (= (_ bv0 1) (ite (= reg_3_w_stage (_ bv0 2)) (_ bv1 1) (_ bv0 1)))) (not (= (_ bv3 2) id_ex_rd)))) (or (= id_ex_reg_wen ((_ extract 1 1) reg_3_w_stage)) (not (= (_ bv3 2) id_ex_rd)))) (not (and (and (= ex_wb_rd (_ bv3 2)) (= ex_wb_reg_wen (_ bv1 1))) (= reg_3_w_stage (_ bv0 2))))))
(define-fun assumption.17 ((reg_3_w_stage (_ BitVec 2)) (ex_wb_reg_wen (_ BitVec 1)) (id_ex_reg_wen (_ BitVec 1))) Bool (and (and true (or (not (= (_ bv0 1) id_ex_reg_wen)) (= (_ bv0 1) ((_ extract 1 1) reg_3_w_stage)))) (not (and (= ex_wb_reg_wen (_ bv0 1)) (= reg_3_w_stage (_ bv1 2))))))
(define-fun assumption.18 ((reg_3_w_stage (_ BitVec 2)) (ex_wb_reg_wen (_ BitVec 1)) (ex_wb_rd (_ BitVec 2)) (id_ex_rd (_ BitVec 2))) Bool (and (and (and true (or (not (= (_ bv2 2) id_ex_rd)) (not (= (_ bv2 2) reg_3_w_stage)))) (or (not (= (_ bv2 2) id_ex_rd)) (not (= reg_3_w_stage (bvor ((_ zero_extend 1) ((_ extract 1 1) reg_3_w_stage)) (_ bv2 2)))))) (not (and (and (= ex_wb_rd (_ bv2 2)) (= ex_wb_reg_wen (_ bv1 1))) (= reg_3_w_stage (_ bv1 2))))))
(define-fun assumption.19 ((reg_3_w_stage (_ BitVec 2)) (ex_wb_reg_wen (_ BitVec 1)) (ex_wb_rd (_ BitVec 2)) (id_ex_rd (_ BitVec 2))) Bool (and (and (and true (or (not (= (_ bv2 2) reg_3_w_stage)) (not (= (_ bv0 2) id_ex_rd)))) (or (not (= (_ bv1 1) ((_ extract 1 1) reg_3_w_stage))) (not (= (_ bv0 2) id_ex_rd)))) (not (and (and (= ex_wb_rd (_ bv0 2)) (= ex_wb_reg_wen (_ bv1 1))) (= reg_3_w_stage (_ bv1 2))))))
